src/ARITHMETIC/SIGN_EXTEND/sign_ext/model/design_smt2.smt2
; SMT-LIBv2 description generated by Yosys 0.9+1706 (git sha1 2e8d6ec0b0, g++ 9.2.0 -fPIC -Os)
; yosys-smt2-module sign_extend
(declare-sort |sign_extend_s| 0)
(declare-fun |sign_extend_is| (|sign_extend_s|) Bool)
; yosys-smt2-output o_OUTPUT 16
; yosys-smt2-wire o_OUTPUT 16
(declare-fun |sign_extend#0| (|sign_extend_s|) (_ BitVec 8)) ; \i_INPUT
(define-fun |sign_extend_n o_OUTPUT| ((state |sign_extend_s|)) (_ BitVec 16) (concat ((_ extract 7 7) (|sign_extend#0| state)) (concat ((_ extract 7 7) (|sign_extend#0| state)) (concat ((_ extract 7 7) (|sign_extend#0| state)) (concat ((_ extract 7 7) (|sign_extend#0| state)) (concat ((_ extract 7 7) (|sign_extend#0| state)) (concat ((_ extract 7 7) (|sign_extend#0| state)) (concat ((_ extract 7 7) (|sign_extend#0| state)) (concat ((_ extract 7 7) (|sign_extend#0| state)) (|sign_extend#0| state))))))))))
; yosys-smt2-input i_INPUT 8
; yosys-smt2-wire i_INPUT 8
(define-fun |sign_extend_n i_INPUT| ((state |sign_extend_s|)) (_ BitVec 8) (|sign_extend#0| state))
; yosys-smt2-assert 0 ./sign_extend.v:17
(define-fun |sign_extend_a 0| ((state |sign_extend_s|)) Bool (or true (not true))) ; $assert$./sign_extend.v:17$7
(define-fun |sign_extend_a| ((state |sign_extend_s|)) Bool 
  (|sign_extend_a 0| state)
)
(define-fun |sign_extend_u| ((state |sign_extend_s|)) Bool true)
(define-fun |sign_extend_i| ((state |sign_extend_s|)) Bool true)
(define-fun |sign_extend_h| ((state |sign_extend_s|)) Bool true)
(define-fun |sign_extend_t| ((state |sign_extend_s|) (next_state |sign_extend_s|)) Bool true) ; end of module sign_extend
; yosys-smt2-topmod sign_extend
; end of yosys output
